param n := 120;
param c := 10000
param : V : p w :=
   0	 376	 366
   1	 278	 268
   2	 376	 366
   3	 440	 430
   4	 273	 263
   5	 317	 307
   6	 424	 414
   7	 297	 287
   8	 309	 299
   9	 505	 495
  10	 261	 251
  11	 264	 254
  12	 484	 474
  13	 262	 252
  14	 284	 274
  15	 380	 370
  16	 279	 269
  17	 371	 361
  18	 483	 473
  19	 262	 252
  20	 285	 275
  21	 482	 472
  22	 269	 259
  23	 279	 269
  24	 454	 444
  25	 268	 258
  26	 308	 298
  27	 449	 439
  28	 283	 273
  29	 298	 288
  30	 455	 445
  31	 282	 272
  32	 293	 283
  33	 429	 419
  34	 271	 261
  35	 330	 320
  36	 373	 363
  37	 281	 271
  38	 376	 366
  39	 365	 355
  40	 283	 273
  41	 382	 372
  42	 476	 466
  43	 272	 262
  44	 282	 272
  45	 367	 357
  46	 302	 292
  47	 361	 351
  48	 405	 395
  49	 265	 255
  50	 360	 350
  51	 360	 350
  52	 313	 303
  53	 357	 347
  54	 460	 450
  55	 262	 252
  56	 308	 298
  57	 420	 410
  58	 285	 275
  59	 325	 315
  60	 417	 407
  61	 270	 260
  62	 343	 333
  63	 376	 366
  64	 281	 271
  65	 373	 363
  66	 360	 350
  67	 304	 294
  68	 366	 356
  69	 490	 480
  70	 263	 253
  71	 277	 267
  72	 456	 446
  73	 269	 259
  74	 305	 295
  75	 386	 376
  76	 277	 267
  77	 367	 357
  78	 376	 366
  79	 292	 282
  80	 362	 352
  81	 488	 478
  82	 266	 256
  83	 276	 266
  84	 430	 420
  85	 261	 251
  86	 339	 329
  87	 444	 434
  88	 262	 252
  89	 324	 314
  90	 480	 470
  91	 264	 254
  92	 286	 276
  93	 507	 497
  94	 260	 250
  95	 263	 253
  96	 507	 497
  97	 260	 250
  98	 263	 253
  99	 455	 445
 100	 264	 254
 101	 311	 301
 102	 422	 412
 103	 273	 263
 104	 335	 325
 105	 410	 400
 106	 308	 298
 107	 312	 302
 108	 372	 362
 109	 292	 282
 110	 366	 356
 111	 415	 405
 112	 269	 259
 113	 346	 336
 114	 407	 397
 115	 300	 290
 116	 323	 313
 117	 495	 485
 118	 263	 253
 119	 272	 262
;

set E :=
   0	  18
   0	  22
   0	  23
   0	  62
   0	  63
   0	  84
   0	  87
   0	  91
   0	  95
   0	 100
   0	 106
   1	   8
   1	  25
   1	  34
   1	  39
   1	  41
   1	  46
   1	  52
   1	  73
   1	  85
   1	 108
   1	 115
   2	   4
   2	   5
   2	   7
   2	  24
   2	  35
   2	  40
   2	  61
   2	  76
   2	  81
   2	  85
   2	  95
   2	 113
   3	   5
   3	   9
   3	  12
   3	  13
   3	  53
   3	  60
   3	  61
   3	  70
   3	  80
   3	  86
   3	 112
   4	   7
   4	  15
   4	  25
   4	  58
   4	  68
   4	  79
   4	  92
   4	  94
   4	  96
   4	 108
   5	  20
   5	  26
   5	  30
   5	  42
   5	  50
   5	  76
   5	  82
   5	  87
   5	  90
   5	  91
   5	 105
   5	 111
   6	  70
   6	  92
   6	  93
   6	  99
   6	 108
   7	  29
   7	  37
   7	  43
   7	  61
   7	  80
   7	  89
   7	 103
   7	 112
   8	  13
   8	  23
   8	  25
   8	  42
   8	  43
   8	  53
   8	  56
   8	  64
   8	  66
   8	  68
   8	  70
   8	  82
   8	  90
   8	 100
   8	 101
   8	 117
   8	 119
   9	  17
   9	  19
   9	  21
   9	  29
   9	  32
   9	  42
   9	  51
   9	  80
   9	  87
   9	  89
   9	 114
  10	  13
  10	  24
  10	  30
  10	  32
  10	  44
  10	  48
  10	  69
  10	  97
  10	 117
  11	  13
  11	  14
  11	  17
  11	  26
  11	  33
  11	  35
  11	  43
  11	  53
  11	  61
  11	  69
  11	  74
  11	 100
  11	 101
  11	 107
  11	 108
  12	  31
  12	  62
  12	  66
  12	  77
  12	  89
  12	 110
  12	 114
  12	 119
  13	  16
  13	  28
  13	  32
  13	  59
  13	  66
  13	  90
  13	  92
  13	 102
  14	  37
  14	  41
  14	  47
  14	  60
  14	  61
  14	  64
  14	  69
  14	  81
  14	  84
  14	  85
  14	  95
  14	 100
  14	 113
  14	 114
  14	 116
  14	 117
  15	  19
  15	  27
  15	  35
  15	  38
  15	  41
  15	  65
  15	  99
  15	 115
  16	  26
  16	  37
  16	  64
  16	  71
  16	  73
  16	  84
  16	  85
  16	 113
  17	  21
  17	  30
  17	  32
  17	  62
  17	  63
  17	  72
  17	  80
  17	  86
  17	  93
  17	  95
  17	 102
  17	 104
  17	 117
  18	  24
  18	  30
  18	  43
  18	  51
  18	  60
  18	  64
  18	  70
  18	  81
  18	  98
  18	 101
  18	 114
  18	 118
  19	  22
  19	  29
  19	  35
  19	  46
  19	  52
  19	  72
  19	 107
  19	 108
  19	 110
  19	 112
  20	  34
  20	  49
  20	  58
  20	  62
  20	  65
  20	  82
  20	  96
  20	 116
  21	  26
  21	  30
  21	  59
  21	  62
  21	  71
  21	  86
  21	  92
  21	  97
  21	  98
  21	 118
  22	  31
  22	  44
  22	  45
  22	  48
  22	  49
  22	  54
  22	  55
  22	  57
  22	  61
  22	  73
  22	  87
  22	  88
  22	  98
  22	 103
  22	 108
  22	 115
  23	  27
  23	  29
  23	  38
  23	  49
  23	  55
  23	  56
  23	  58
  23	  67
  23	  88
  24	  32
  24	  57
  24	  65
  24	  80
  24	  87
  24	  96
  24	  97
  24	 104
  24	 118
  25	  43
  25	  56
  25	  59
  25	  78
  25	  89
  25	 107
  25	 113
  25	 114
  26	  27
  26	  53
  26	  60
  26	  63
  26	  66
  26	  73
  26	  85
  26	  89
  26	 118
  27	  32
  27	  39
  27	  41
  27	  42
  27	  54
  27	  64
  27	  66
  27	  71
  27	 113
  28	  47
  28	  59
  28	  71
  28	  74
  28	  89
  28	  98
  28	 101
  28	 119
  29	  35
  29	  53
  29	  58
  29	  66
  29	 110
  29	 113
  30	  77
  30	  79
  30	  88
  30	  89
  30	  93
  30	 102
  30	 116
  31	  32
  31	  50
  31	  58
  31	  62
  31	  65
  31	  67
  31	  74
  31	  96
  31	 110
  31	 118
  32	  35
  32	  49
  32	  54
  32	  55
  32	  71
  32	  76
  32	  80
  32	  89
  32	  92
  32	  98
  32	 104
  32	 107
  32	 108
  32	 118
  33	  68
  33	 100
  33	 109
  33	 110
  33	 117
  34	  37
  34	  45
  34	  60
  34	  71
  34	  81
  34	  82
  34	  85
  34	  94
  34	 100
  34	 118
  35	  38
  35	  46
  35	  53
  35	  62
  35	  85
  35	  97
  36	  53
  36	  57
  36	  68
  36	  79
  36	  83
  36	  95
  36	 104
  36	 105
  36	 106
  36	 112
  37	  43
  37	  46
  37	  75
  37	  79
  37	  80
  37	  84
  37	  87
  37	  98
  37	 105
  37	 109
  37	 114
  38	  41
  38	  43
  38	  46
  38	  52
  38	  67
  38	  89
  38	  91
  38	  97
  38	  98
  38	 104
  38	 118
  39	  44
  39	  48
  39	  49
  39	  51
  39	  53
  39	  54
  39	  58
  39	  66
  39	  70
  39	  73
  39	  75
  39	  85
  39	  94
  39	 103
  39	 108
  39	 112
  39	 117
  39	 118
  40	  41
  40	  42
  40	  49
  40	  53
  40	  69
  40	  90
  40	 102
  40	 104
  40	 106
  41	  42
  41	  45
  41	  59
  41	  64
  41	  65
  41	  70
  41	  80
  41	  88
  41	  97
  41	  99
  41	 107
  42	  44
  42	  46
  42	  57
  42	  70
  42	  71
  42	  72
  42	  95
  42	 108
  43	  44
  43	  49
  43	  56
  43	  62
  43	  65
  43	  67
  43	  68
  43	  73
  43	  89
  43	 102
  44	  58
  44	  64
  44	  99
  44	 111
  45	  49
  45	  57
  45	  71
  45	  75
  45	  77
  45	  79
  45	  81
  45	  93
  45	 104
  45	 118
  46	  47
  46	  60
  46	  64
  46	  69
  46	  75
  46	  87
  46	  90
  46	  91
  46	  94
  46	 111
  46	 119
  47	  52
  47	  67
  47	  86
  47	  93
  47	 109
  48	  68
  48	  74
  48	  83
  48	 117
  48	 118
  49	  73
  49	 102
  49	 105
  49	 115
  49	 116
  50	  76
  50	  96
  50	  98
  50	 118
  51	  59
  51	  70
  51	  89
  51	  97
  52	  53
  52	  57
  52	  63
  52	  77
  52	  81
  52	  82
  52	  86
  52	  93
  52	 116
  53	  54
  53	  62
  53	  85
  53	  92
  53	 100
  53	 103
  54	  60
  54	  80
  54	  87
  54	 102
  54	 114
  55	  58
  55	  81
  55	  82
  55	  85
  55	  94
  55	  96
  55	 105
  56	  58
  56	  63
  56	  71
  56	  78
  56	  92
  56	 117
  57	  58
  57	  62
  57	  84
  57	  87
  57	  89
  57	 100
  57	 101
  57	 119
  58	  64
  58	  65
  58	  94
  58	  95
  58	  97
  58	 102
  58	 107
  58	 118
  59	  75
  59	  85
  59	  97
  59	 111
  59	 113
  60	  62
  60	  69
  60	  77
  60	  84
  60	  85
  60	 117
  61	  62
  61	  73
  61	  82
  61	  83
  62	  65
  62	  90
  62	  91
  62	 107
  62	 117
  63	  72
  63	  83
  63	  90
  63	  93
  63	 108
  64	  65
  64	  68
  64	  80
  64	  89
  65	  67
  65	  72
  65	  75
  65	  81
  65	  82
  65	 105
  66	  74
  66	  76
  66	  79
  66	  81
  66	 110
  67	  75
  67	  81
  67	  94
  67	 108
  67	 114
  68	  80
  68	  81
  68	  82
  68	  87
  68	  92
  68	  98
  69	  94
  69	  99
  69	 116
  70	  78
  70	 101
  70	 105
  70	 106
  70	 115
  71	  79
  71	  83
  71	 102
  71	 106
  71	 110
  71	 119
  72	 110
  72	 114
  72	 115
  73	 109
  73	 112
  74	  75
  74	  78
  74	  79
  74	  93
  74	  96
  74	 102
  75	  76
  75	  84
  75	  86
  75	  95
  75	 105
  75	 107
  76	  87
  76	 105
  77	  81
  77	 102
  78	  84
  78	  92
  79	  90
  79	  94
  79	 100
  79	 106
  79	 116
  80	  82
  80	  93
  80	 109
  81	 109
  81	 112
  82	  84
  82	 117
  83	 114
  84	  88
  84	  93
  84	  97
  84	 112
  84	 117
  85	  94
  85	  96
  85	  97
  85	 102
  85	 109
  86	  90
  86	  93
  86	 107
  86	 117
  86	 118
  87	  90
  87	  97
  87	  98
  87	 103
  87	 112
  87	 116
  88	 100
  88	 110
  89	  94
  89	  96
  89	  98
  89	 100
  89	 102
  89	 111
  89	 113
  89	 118
  90	  97
  90	 100
  90	 104
  91	  94
  91	 100
  91	 101
  91	 106
  91	 118
  92	  97
  92	 114
  93	 113
  94	 103
  95	 113
  96	  99
  96	 119
  97	 101
  97	 103
  97	 105
  97	 108
  98	 101
  98	 103
  99	 106
  99	 108
  99	 112
 100	 106
 100	 116
 101	 104
 101	 117
 102	 106
 102	 109
 102	 110
 102	 114
 104	 111
 105	 111
 107	 108
 107	 118
 108	 111
 109	 110
 110	 112
 111	 115
 113	 118
 114	 116
 114	 118
 116	 119
;
